(declare-const X String)
; .+\.([^.]+)$
(assert (not (str.in_re X (re.++ (re.+ re.allchar) (str.to_re ".") (re.+ (re.comp (str.to_re "."))) (str.to_re "\u{a}")))))
; to\s+User-Agent\x3Acid=tb\x2eCookie\x3A\x2Fimages\x2Fnocache\x2Ftr\x2Fgca\x2Fm\.gif\?
(assert (not (str.in_re X (re.++ (str.to_re "to") (re.+ (re.union (str.to_re " ") (str.to_re "\u{9}") (str.to_re "\u{a}") (str.to_re "\u{c}") (str.to_re "\u{d}"))) (str.to_re "User-Agent:cid=tb.Cookie:/images/nocache/tr/gca/m.gif?\u{a}")))))
; EFError\swww\x2emalware-stopper\x2ecom
(assert (not (str.in_re X (re.++ (str.to_re "EFError") (re.union (str.to_re " ") (str.to_re "\u{9}") (str.to_re "\u{a}") (str.to_re "\u{c}") (str.to_re "\u{d}")) (str.to_re "www.malware-stopper.com\u{a}")))))
; ^\d+([.,]?\d+)?$
(assert (not (str.in_re X (re.++ (re.+ (re.range "0" "9")) (re.opt (re.++ (re.opt (re.union (str.to_re ".") (str.to_re ","))) (re.+ (re.range "0" "9")))) (str.to_re "\u{a}")))))
(check-sat)

(exit)
